; PUSH 0x00 DUP1 DUP3 ADD PUSH cw_3 SWAP1 => PUSH 0x00 PUSH cw_3 DUP3
(set-option :produce-proofs true)
; 
(set-info :status unknown)
(declare-fun storage_t ((_ BitVec 256) (_ BitVec 256) Int (_ BitVec 256)) (_ BitVec 256))
(declare-fun w_3 () (_ BitVec 256))
(declare-fun storage_s ((_ BitVec 256) (_ BitVec 256) Int (_ BitVec 256)) (_ BitVec 256))
(declare-fun exc_halt_t (Int) Bool)
(declare-fun exc_halt_s (Int) Bool)
(declare-fun stack_t ((_ BitVec 256) (_ BitVec 256) Int (_ BitVec 6)) (_ BitVec 256))
(declare-fun stack_s ((_ BitVec 256) (_ BitVec 256) Int (_ BitVec 6)) (_ BitVec 256))
(declare-fun sc_t (Int) (_ BitVec 6))
(declare-fun sc_s (Int) (_ BitVec 6))
(declare-fun used_gas_t ((_ BitVec 256) (_ BitVec 256) Int) Int)
(declare-fun used_gas_s ((_ BitVec 256) (_ BitVec 256) Int) Int)
(assert
 (exists ((x_0 (_ BitVec 256)) )(let (($x1393 (forall ((w (_ BitVec 256)) )(let ((?x2961 (storage_t x_0 w_3 3 w)))
 (let ((?x1965 (storage_s x_0 w_3 6 w)))
 (= ?x1965 ?x2961))))
 ))
 (let (($x6783 (exc_halt_t 3)))
 (let (($x772 (exc_halt_s 6)))
 (let (($x3870 (= $x772 $x6783)))
 (let (($x7115 (forall ((n (_ BitVec 6)) )(let ((?x4548 (stack_t x_0 w_3 3 n)))
 (let ((?x9230 (stack_s x_0 w_3 6 n)))
 (let (($x8708 (= ?x9230 ?x4548)))
 (let ((?x6438 (sc_t 3)))
 (let (($x5094 (bvsle ?x6438 n)))
 (or $x5094 $x8708)))))))
 ))
 (let ((?x6438 (sc_t 3)))
 (let ((?x926 (sc_s 6)))
 (let (($x5324 (= ?x926 ?x6438)))
 (let ((?x119 (used_gas_t x_0 w_3 0)))
 (let ((?x2679 (used_gas_s x_0 w_3 0)))
 (let (($x2065 (= ?x2679 ?x119)))
 (let (($x10835 (forall ((w (_ BitVec 256)) )(let ((?x9569 (storage_t x_0 w_3 0 w)))
 (let ((?x10391 (storage_s x_0 w_3 0 w)))
 (= ?x10391 ?x9569))))
 ))
 (let (($x56 (exc_halt_t 0)))
 (let (($x57 (exc_halt_s 0)))
 (let (($x58 (= $x57 $x56)))
 (let (($x2497 (forall ((n (_ BitVec 6)) )(let ((?x63 (sc_t 0)))
 (let (($x7453 (bvsle ?x63 n)))
 (let ((?x2128 (stack_t x_0 w_3 0 n)))
 (let ((?x5601 (stack_s x_0 w_3 0 n)))
 (let (($x1610 (= ?x5601 ?x2128)))
 (or $x1610 $x7453)))))))
 ))
 (let ((?x63 (sc_t 0)))
 (let ((?x72 (sc_s 0)))
 (let (($x73 (= ?x72 ?x63)))
 (let (($x8259 (not (= ((_ extract 6 6) (bvadd (_ bv1 7) (concat (_ bv0 1) (sc_t 2)))) (_ bv0 1)))))
 (let (($x5498 (not (bvsle (_ bv0 6) (bvadd (_ bv61 6) (sc_t 2))))))
 (let (($x5252 (exc_halt_t 2)))
 (let (($x5513 (= $x6783 (or $x5252 $x5498 $x8259))))
 (let (($x1058 (forall ((w (_ BitVec 256)) )(let ((?x1009 (storage_t x_0 w_3 2 w)))
 (let ((?x2961 (storage_t x_0 w_3 3 w)))
 (= ?x2961 ?x1009))))
 ))
 (let (($x8287 (forall ((n (_ BitVec 6)) )(let ((?x2714 (sc_t 2)))
 (let ((?x8432 (bvadd (_ bv61 6) ?x2714)))
 (let (($x9529 (bvsle ?x8432 n)))
 (or (= (stack_t x_0 w_3 3 n) (stack_t x_0 w_3 2 n)) $x9529)))))
 ))
 (let (($x8645 (= ?x6438 (bvadd (_ bv1 6) (sc_t 2)))))
 (let (($x4079 (= (used_gas_t x_0 w_3 3) (+ 3 (used_gas_t x_0 w_3 2)))))
 (let (($x2856 (= (stack_t x_0 w_3 3 (bvadd (_ bv63 6) (sc_t 2))) (stack_t x_0 w_3 2 (bvadd (_ bv63 6) (sc_t 2))))))
 (let (($x9712 (= (stack_t x_0 w_3 3 (bvadd (_ bv62 6) (sc_t 2))) (stack_t x_0 w_3 2 (bvadd (_ bv62 6) (sc_t 2))))))
 (let ((?x2714 (sc_t 2)))
 (let ((?x8432 (bvadd (_ bv61 6) ?x2714)))
 (let ((?x10103 (stack_t x_0 w_3 2 ?x8432)))
 (let (($x1340 (not (= ((_ extract 6 6) (bvadd (_ bv1 7) (concat (_ bv0 1) (sc_t 1)))) (_ bv0 1)))))
 (let (($x3508 (exc_halt_t 1)))
 (let (($x7865 (= $x5252 (or $x3508 $x1340))))
 (let (($x8563 (forall ((w (_ BitVec 256)) )(let ((?x8358 (storage_t x_0 w_3 1 w)))
 (let ((?x1009 (storage_t x_0 w_3 2 w)))
 (= ?x1009 ?x8358))))
 ))
 (let (($x10560 (forall ((n (_ BitVec 6)) )(let ((?x8347 (sc_t 1)))
 (let (($x10184 (bvsle ?x8347 n)))
 (or $x10184 (= (stack_t x_0 w_3 2 n) (stack_t x_0 w_3 1 n))))))
 ))
 (let (($x2756 (= ?x2714 (bvadd (_ bv1 6) (sc_t 1)))))
 (let ((?x10566 (used_gas_t x_0 w_3 2)))
 (let (($x9130 (= $x3508 (or $x56 (not (= ((_ extract 6 6) (bvadd (_ bv1 7) (concat (_ bv0 1) ?x63))) (_ bv0 1)))))))
 (let (($x3986 (forall ((w (_ BitVec 256)) )(let ((?x9569 (storage_t x_0 w_3 0 w)))
 (let ((?x8358 (storage_t x_0 w_3 1 w)))
 (= ?x8358 ?x9569))))
 ))
 (let (($x8062 (forall ((n (_ BitVec 6)) )(let ((?x63 (sc_t 0)))
 (let (($x7453 (bvsle ?x63 n)))
 (or $x7453 (= (stack_t x_0 w_3 1 n) (stack_t x_0 w_3 0 n))))))
 ))
 (let ((?x8347 (sc_t 1)))
 (let (($x6213 (= ?x8347 (bvadd (_ bv1 6) ?x63))))
 (let (($x10655 (= $x772 (or (exc_halt_s 5) (not (bvsle (_ bv0 6) (bvadd (_ bv62 6) (sc_s 5))))))))
 (let (($x4618 (forall ((w (_ BitVec 256)) )(let ((?x7029 (storage_s x_0 w_3 5 w)))
 (let ((?x1965 (storage_s x_0 w_3 6 w)))
 (= ?x1965 ?x7029))))
 ))
 (let (($x4651 (forall ((n (_ BitVec 6)) )(let ((?x4319 (sc_s 5)))
 (let ((?x8322 (bvadd (_ bv62 6) ?x4319)))
 (let (($x4228 (bvsle ?x8322 n)))
 (or $x4228 (= (stack_s x_0 w_3 6 n) (stack_s x_0 w_3 5 n)))))))
 ))
 (let ((?x4319 (sc_s 5)))
 (let (($x1737 (= ?x926 ?x4319)))
 (let (($x2142 (= (used_gas_s x_0 w_3 6) (+ 3 (used_gas_s x_0 w_3 5)))))
 (let (($x9360 (= (stack_s x_0 w_3 6 (bvadd (_ bv62 6) ?x926)) (stack_s x_0 w_3 5 (bvadd (_ bv63 6) ?x4319)))))
 (let (($x601 (= (stack_s x_0 w_3 6 (bvadd (_ bv63 6) ?x926)) (stack_s x_0 w_3 5 (bvadd (_ bv62 6) ?x4319)))))
 (let (($x2077 (not (= ((_ extract 6 6) (bvadd (_ bv1 7) (concat (_ bv0 1) (sc_s 4)))) (_ bv0 1)))))
 (let (($x7172 (exc_halt_s 4)))
 (let (($x11317 (exc_halt_s 5)))
 (let (($x3897 (forall ((w (_ BitVec 256)) )(let ((?x2659 (storage_s x_0 w_3 4 w)))
 (let ((?x7029 (storage_s x_0 w_3 5 w)))
 (= ?x7029 ?x2659))))
 ))
 (let (($x7443 (forall ((n (_ BitVec 6)) )(or (= (stack_s x_0 w_3 5 n) (stack_s x_0 w_3 4 n)) (bvsle (sc_s 4) n)))
 ))
 (let (($x6568 (= ?x4319 (bvadd (_ bv1 6) (sc_s 4)))))
 (let ((?x7568 (used_gas_s x_0 w_3 5)))
 (let (($x7702 (= $x7172 (or (exc_halt_s 3) (not (bvsle (_ bv0 6) (bvadd (_ bv62 6) (sc_s 3))))))))
 (let (($x9337 (forall ((w (_ BitVec 256)) )(let ((?x2372 (storage_s x_0 w_3 3 w)))
 (let ((?x2659 (storage_s x_0 w_3 4 w)))
 (= ?x2659 ?x2372))))
 ))
 (let (($x214 (forall ((n (_ BitVec 6)) )(let ((?x275 (sc_s 3)))
 (let ((?x9043 (bvadd (_ bv62 6) ?x275)))
 (let (($x6666 (bvsle ?x9043 n)))
 (or (= (stack_s x_0 w_3 4 n) (stack_s x_0 w_3 3 n)) $x6666)))))
 ))
 (let ((?x275 (sc_s 3)))
 (let ((?x9812 (bvadd (_ bv63 6) ?x275)))
 (let ((?x4305 (sc_s 4)))
 (let (($x8572 (= ?x4305 ?x9812)))
 (let ((?x5794 (used_gas_s x_0 w_3 4)))
 (let ((?x6031 (stack_s x_0 w_3 3 ?x9812)))
 (let (($x11175 (= (stack_s x_0 w_3 4 (bvadd (_ bv63 6) ?x4305)) (bvadd ?x6031 (stack_s x_0 w_3 3 (bvadd (_ bv62 6) ?x275))))))
 (let (($x1395 (not (= ((_ extract 6 6) (bvadd (_ bv1 7) (concat (_ bv0 1) (sc_s 2)))) (_ bv0 1)))))
 (let (($x247 (exc_halt_s 2)))
 (let (($x292 (exc_halt_s 3)))
 (let (($x3235 (= $x292 (or $x247 $x1395 (not (bvsle (_ bv0 6) (bvadd (_ bv61 6) (sc_s 2))))))))
 (let (($x1105 (forall ((w (_ BitVec 256)) )(let ((?x587 (storage_s x_0 w_3 2 w)))
 (let ((?x2372 (storage_s x_0 w_3 3 w)))
 (= ?x2372 ?x587))))
 ))
 (let (($x7918 (forall ((n (_ BitVec 6)) )(let ((?x218 (sc_s 2)))
 (let ((?x4435 (bvadd (_ bv61 6) ?x218)))
 (let (($x945 (bvsle ?x4435 n)))
 (or $x945 (= (stack_s x_0 w_3 3 n) (stack_s x_0 w_3 2 n)))))))
 ))
 (let (($x4795 (= ?x275 (bvadd (_ bv1 6) (sc_s 2)))))
 (let ((?x8688 (used_gas_s x_0 w_3 3)))
 (let ((?x218 (sc_s 2)))
 (let ((?x7855 (bvadd (_ bv63 6) ?x218)))
 (let ((?x2920 (stack_s x_0 w_3 2 ?x7855)))
 (let (($x6665 (= (stack_s x_0 w_3 3 (bvadd (_ bv62 6) ?x218)) (stack_s x_0 w_3 2 (bvadd (_ bv62 6) ?x218)))))
 (let ((?x4435 (bvadd (_ bv61 6) ?x218)))
 (let ((?x1347 (stack_s x_0 w_3 2 ?x4435)))
 (let (($x8490 (not (bvsle (_ bv0 6) (bvadd (_ bv63 6) (sc_s 1))))))
 (let (($x8154 (not (= ((_ extract 6 6) (bvadd (_ bv1 7) (concat (_ bv0 1) (sc_s 1)))) (_ bv0 1)))))
 (let (($x189 (exc_halt_s 1)))
 (let (($x8673 (forall ((w (_ BitVec 256)) )(let ((?x5270 (storage_s x_0 w_3 1 w)))
 (let ((?x587 (storage_s x_0 w_3 2 w)))
 (= ?x587 ?x5270))))
 ))
 (let (($x3645 (forall ((n (_ BitVec 6)) )(let ((?x154 (sc_s 1)))
 (let ((?x2245 (bvadd (_ bv63 6) ?x154)))
 (let (($x3012 (bvsle ?x2245 n)))
 (or (= (stack_s x_0 w_3 2 n) (stack_s x_0 w_3 1 n)) $x3012)))))
 ))
 (let (($x1362 (= ?x218 (bvadd (_ bv1 6) (sc_s 1)))))
 (let ((?x7297 (used_gas_s x_0 w_3 2)))
 (let ((?x154 (sc_s 1)))
 (let ((?x2245 (bvadd (_ bv63 6) ?x154)))
 (let ((?x781 (stack_s x_0 w_3 1 ?x2245)))
 (let (($x2013 (= $x189 (or $x57 (not (= ((_ extract 6 6) (bvadd (_ bv1 7) (concat (_ bv0 1) ?x72))) (_ bv0 1)))))))
 (let (($x5777 (forall ((w (_ BitVec 256)) )(let ((?x10391 (storage_s x_0 w_3 0 w)))
 (let ((?x5270 (storage_s x_0 w_3 1 w)))
 (= ?x5270 ?x10391))))
 ))
 (let (($x10282 (forall ((n (_ BitVec 6)) )(let ((?x72 (sc_s 0)))
 (let (($x4132 (bvsle ?x72 n)))
 (or (= (stack_s x_0 w_3 1 n) (stack_s x_0 w_3 0 n)) $x4132))))
 ))
 (let (($x11639 (= ?x154 (bvadd (_ bv1 6) ?x72))))
 (let (($x3122 (forall ((w (_ BitVec 256)) )(let ((?x10391 (storage_s x_0 w_3 0 w)))
 (= ?x10391 (_ bv0 256))))
 ))
 (let (($x4157 (= ?x2679 0)))
 (let (($x6901 (not $x57)))
 (let (($x1651 (= (stack_s x_0 w_3 0 (_ bv0 6)) x_0)))
 (let (($x8685 (= ?x72 (_ bv1 6))))
 (and $x8685 $x1651 $x6901 $x4157 $x3122 (= (stack_s x_0 w_3 1 ?x72) (_ bv0 256)) (= (used_gas_s x_0 w_3 1) (+ 3 ?x2679)) $x11639 $x10282 $x5777 $x2013 (= ?x2920 ?x781) (= (stack_s x_0 w_3 2 ?x2245) ?x781) (= ?x7297 (+ 3 (used_gas_s x_0 w_3 1))) $x1362 $x3645 $x8673 (= $x247 (or $x189 $x8154 $x8490)) (= ?x6031 ?x1347) (= (stack_s x_0 w_3 3 ?x4435) ?x1347) $x6665 (= (stack_s x_0 w_3 3 ?x7855) ?x2920) (= ?x8688 (+ 3 ?x7297)) $x4795 $x7918 $x1105 $x3235 $x11175 (= ?x5794 (+ 3 ?x8688)) $x8572 $x214 $x9337 $x7702 (= (stack_s x_0 w_3 5 ?x4305) w_3) (= ?x7568 (+ 3 ?x5794)) $x6568 $x7443 $x3897 (= $x11317 (or $x7172 $x2077)) $x601 $x9360 $x2142 $x1737 $x4651 $x4618 $x10655 (= (stack_t x_0 w_3 1 ?x63) (_ bv0 256)) (= (used_gas_t x_0 w_3 1) (+ 3 ?x119)) $x6213 $x8062 $x3986 $x9130 (= (stack_t x_0 w_3 2 ?x8347) w_3) (= ?x10566 (+ 3 (used_gas_t x_0 w_3 1))) $x2756 $x10560 $x8563 $x7865 (= (stack_t x_0 w_3 3 (bvadd (_ bv63 6) ?x6438)) ?x10103) (= (stack_t x_0 w_3 3 ?x8432) ?x10103) $x9712 $x2856 $x4079 $x8645 $x8287 $x1058 $x5513 $x73 $x2497 $x58 $x10835 $x2065 (not (and $x5324 $x7115 $x3870 $x1393))))))))))))))))))))))))))))))))))))))))))))))))))))))))))))))))))))))))))))))))))))))))))))))))))))))))))
 )
(check-sat)
(get-proof)
